(set-info :smt-lib-version 2.7)
(set-logic QF_EIA)
(set-info :source |
Generated by: Florian Frohn
Generator: LoAT
Application: proving lower bounds on the worst-case runtime of transition systems
Target solver: SwInE
Time limit: 1.0
Benchmarks generated by the verification tool LoAT to evaluate the SMT solver
SwInE. We extracted all benchmarks with exponentiation that were generated by
LoAT when analyzing the examples from the category LIA-Lin (linear CHCs with
linear integer arithmetic) of the CHC competitions 2022 and 2023, and when
analyzing the examples from the categories "Termination of Integer Transition
Systems" and "Complexity of Integer Transition Systems" of the Termination and
Complexity Competition 2024. From the entire set, we selected those where
* SwInE v0.1.0 or SwInE-Z3 v0.1.2 failed or needed more than 1 second, or
* SwInE-Z3 v0.1.2 failed without phasing, a technique to prevent SwInE from
  computing with huge constants (described here
  https://arxiv.org/abs/2502.04761)
If several selected benchmarks only differed in lines not containing
exponentiation, we kept only one of them. This benchmark is known to be
satisfiable with the slightly different semantics of exponentiation used by the
versions of SwInE mentioned above.
|)
(set-info :license "https://creativecommons.org/licenses/by/4.0/")
(set-info :category "industrial")
(set-info :status unknown)

(declare-fun i1 () Int)
(declare-fun it1 () Int)
(declare-fun it2 () Int)
(declare-fun i2 () Int)
(declare-fun i3 () Int)
(declare-fun it3 () Int)
(declare-fun it4 () Int)
(declare-fun it5 () Int)
(declare-fun it55 () Int)
(declare-fun it56 () Int)
(declare-fun it57 () Int)
(declare-fun it58 () Int)
(declare-fun it59 () Int)
(declare-fun it67 () Int)
(declare-fun it68 () Int)
(declare-fun it69 () Int)
(declare-fun it70 () Int)
(declare-fun it71 () Int)
(declare-fun it77 () Int)
(declare-fun it78 () Int)
(declare-fun it79 () Int)
(declare-fun it80 () Int)
(declare-fun it81 () Int)
(assert (= (+ i1 (- 1)) 0))
(assert (= (+ it1 (- 2)) 0))
(assert (= (+ (* i2 (- 1)) it2 (- 1)) 0))
(assert (= (+ it3 (* i3 (- 1))) 0))
(assert (= (+ it4 (- 1)) 0))
(assert (= (+ it5 (- 1)) 0))
(assert (and (>= (+ it1 (- 2)) 0)
     (>= (+ (* it1 (- 1)) 2) 0)
     (> 1 0)
     (>= (+ it3 (- 1)) 0)))
(assert (= (+ it55 (* it1 (- 1))) 0))
(assert (= (+ (* it3 (- 1)) it56 (* it2 (- 1))) 0))
(assert (= it57 0))
(assert (= (+ (+ 0 it58) (* (** 2 it3) (+ 0 it4) (+ 0 (- 1)))) (+ 0 0)))
(assert (= (+ it59 (* it5 (- 1))) 0))
(assert (and (= (+ it55 (- 2)) 0) (<= it57 0)))
(assert (= (+ it67 (- 3)) 0))
(assert (= (+ (* it56 (- 1)) it68 (- 1)) 0))
(assert (= (+ it69 (* it57 (- 1))) 0))
(assert (= (+ (* it58 (- 1)) it70) 0))
(assert (= (+ (* it59 (- 1)) it71) 0))
(assert (and (> 1 0)
     (>= (+ it70 (- 1)) 0)
     (>= (+ it67 (- 3)) 0)
     (>= (+ (* it67 (- 1)) 3) 0)))
(assert (= (+ (* it67 (- 1)) it77) 0))
(assert (= (+ (* it70 (- 1)) (* it68 (- 1)) it78) 0))
(assert (= (+ (* it69 (- 1)) it79) 0))
(assert (= it80 0))
(assert (= (+ (* (** 2 it70) (+ 0 it71) (+ 0 (- 1))) (+ 0 it81)) (+ 0 0)))
(check-sat)
(exit)
